
Gurobi 7.0.2 (linux64, Matlab) logging started Sun Sep  2 08:56:03 2018


Gurobi 7.0.2 (linux64) logging started Sun Sep  2 08:56:03 2018

Optimize a model with 1692 rows, 14100 columns and 281317 nonzeros
Coefficient statistics:
  Matrix range     [1e+00, 2e+01]
  Objective range  [1e+06, 9e+07]
  Bounds range     [1e+00, 1e+00]
  RHS range        [1e+00, 3e+01]
Iteration    Objective       Primal Inf.    Dual Inf.      Time
       0    6.4813879e+08   0.000000e+00   0.000000e+00      0s

Solved in 0 iterations and 0.01 seconds
Optimal objective  6.481387941e+08
